p cnf 1682
-23 -527
-24 -530
-25 -533
-26 -536
-27 -539
-28 -542
-29 -545
-30 -548
-31 -551
-32 -554
-33 -557
-34 -560
-35 -563
-36 -566
-37 -569
-38 -572
-39 -575
-40 -578
-41 -581
-42 -584
-43 -587
-44 -590
-45 591
-46 592
-47 593
-48 594
-49 595
-50 596
-51 597
-52 598
-53 599
-54 600
-55 601
-56 602
-57 603
-58 604
-59 605
-60 -24
-60 -25
24 25 60
-61 -26
-61 -27
26 27 61
-62 -28
-62 -29
28 29 62
-63 -30
-63 -31
30 31 63
-64 -32
-64 -33
32 33 64
-65 -34
-65 -35
34 35 65
-66 -36
-66 -37
36 37 66
-67 -38
-67 -39
38 39 67
-68 -40
-68 -41
40 41 68
-69 -42
-69 -43
42 43 69
-70 -44
-70 -45
44 45 70
-71 -46
-71 -47
46 47 71
-72 -48
-72 -49
48 49 72
-73 -50
-73 -51
50 51 73
-74 -52
-74 -53
52 53 74
-75 -54
-75 -55
54 55 75
-76 -56
-76 -57
56 57 76
-77 -58
-77 -59
58 59 77
-78 60
-78 61
-60 -61 78
-79 62
-79 63
-62 -63 79
-80 64
-80 65
-64 -65 80
-81 66
-81 67
-66 -67 81
-82 68
-82 69
-68 -69 82
-83 70
-83 71
-70 -71 83
-84 72
-84 73
-72 -73 84
-85 74
-85 75
-74 -75 85
-86 76
-86 77
-76 -77 86
-87 78
-87 79
-78 -79 87
-88 80
-88 81
-80 -81 88
-89 82
-89 83
-82 -83 89
-90 84
-90 85
-84 -85 90
-91 87
-91 88
-87 -88 91
-92 89
-92 90
-89 -90 92
-93 91
-93 92
-91 -92 93
-94 86
-94 93
-86 -93 94
-95 -23
-95 24
23 -24 95
-96 23
-96 -24
-23 24 96
-97 -95
-97 -96
95 96 97
-98 23
-98 24
-23 -24 98
-99 -23
-99 -97
23 97 99
-100 23
-100 97
-23 -97 100
-101 -99
-101 -100
99 100 101
-102 23
-102 -97
-23 97 102
-103 -98
-103 -102
98 102 103
-104 -24
-104 25
24 -25 104
-105 24
-105 -25
-24 25 105
-106 -104
-106 -105
104 105 106
-107 24
-107 25
-24 -25 107
-108 103
-108 -106
-103 106 108
-109 -103
-109 106
103 -106 109
-110 -108
-110 -109
108 109 110
-111 -103
-111 -106
103 106 111
-112 -107
-112 -111
107 111 112
-113 -25
-113 26
25 -26 113
-114 25
-114 -26
-25 26 114
-115 -113
-115 -114
113 114 115
-116 25
-116 26
-25 -26 116
-117 112
-117 -115
-112 115 117
-118 -112
-118 115
112 -115 118
-119 -117
-119 -118
117 118 119
-120 -112
-120 -115
112 115 120
-121 -116
-121 -120
116 120 121
-122 -26
-122 27
26 -27 122
-123 26
-123 -27
-26 27 123
-124 -122
-124 -123
122 123 124
-125 26
-125 27
-26 -27 125
-126 121
-126 -124
-121 124 126
-127 -121
-127 124
121 -124 127
-128 -126
-128 -127
126 127 128
-129 -121
-129 -124
121 124 129
-130 -125
-130 -129
125 129 130
-131 -27
-131 28
27 -28 131
-132 27
-132 -28
-27 28 132
-133 -131
-133 -132
131 132 133
-134 27
-134 28
-27 -28 134
-135 130
-135 -133
-130 133 135
-136 -130
-136 133
130 -133 136
-137 -135
-137 -136
135 136 137
-138 -130
-138 -133
130 133 138
-139 -134
-139 -138
134 138 139
-140 -28
-140 29
28 -29 140
-141 28
-141 -29
-28 29 141
-142 -140
-142 -141
140 141 142
-143 28
-143 29
-28 -29 143
-144 139
-144 -142
-139 142 144
-145 -139
-145 142
139 -142 145
-146 -144
-146 -145
144 145 146
-147 -139
-147 -142
139 142 147
-148 -143
-148 -147
143 147 148
-149 -29
-149 30
29 -30 149
-150 29
-150 -30
-29 30 150
-151 -149
-151 -150
149 150 151
-152 29
-152 30
-29 -30 152
-153 148
-153 -151
-148 151 153
-154 -148
-154 151
148 -151 154
-155 -153
-155 -154
153 154 155
-156 -148
-156 -151
148 151 156
-157 -152
-157 -156
152 156 157
-158 -30
-158 31
30 -31 158
-159 30
-159 -31
-30 31 159
-160 -158
-160 -159
158 159 160
-161 30
-161 31
-30 -31 161
-162 157
-162 -160
-157 160 162
-163 -157
-163 160
157 -160 163
-164 -162
-164 -163
162 163 164
-165 -157
-165 -160
157 160 165
-166 -161
-166 -165
161 165 166
-167 -31
-167 32
31 -32 167
-168 31
-168 -32
-31 32 168
-169 -167
-169 -168
167 168 169
-170 31
-170 32
-31 -32 170
-171 166
-171 -169
-166 169 171
-172 -166
-172 169
166 -169 172
-173 -171
-173 -172
171 172 173
-174 -166
-174 -169
166 169 174
-175 -170
-175 -174
170 174 175
-176 -32
-176 33
32 -33 176
-177 32
-177 -33
-32 33 177
-178 -176
-178 -177
176 177 178
-179 32
-179 33
-32 -33 179
-180 175
-180 -178
-175 178 180
-181 -175
-181 178
175 -178 181
-182 -180
-182 -181
180 181 182
-183 -175
-183 -178
175 178 183
-184 -179
-184 -183
179 183 184
-185 -33
-185 34
33 -34 185
-186 33
-186 -34
-33 34 186
-187 -185
-187 -186
185 186 187
-188 33
-188 34
-33 -34 188
-189 184
-189 -187
-184 187 189
-190 -184
-190 187
184 -187 190
-191 -189
-191 -190
189 190 191
-192 -184
-192 -187
184 187 192
-193 -188
-193 -192
188 192 193
-194 -34
-194 35
34 -35 194
-195 34
-195 -35
-34 35 195
-196 -194
-196 -195
194 195 196
-197 34
-197 35
-34 -35 197
-198 193
-198 -196
-193 196 198
-199 -193
-199 196
193 -196 199
-200 -198
-200 -199
198 199 200
-201 -193
-201 -196
193 196 201
-202 -197
-202 -201
197 201 202
-203 -35
-203 36
35 -36 203
-204 35
-204 -36
-35 36 204
-205 -203
-205 -204
203 204 205
-206 35
-206 36
-35 -36 206
-207 202
-207 -205
-202 205 207
-208 -202
-208 205
202 -205 208
-209 -207
-209 -208
207 208 209
-210 -202
-210 -205
202 205 210
-211 -206
-211 -210
206 210 211
-212 -36
-212 37
36 -37 212
-213 36
-213 -37
-36 37 213
-214 -212
-214 -213
212 213 214
-215 36
-215 37
-36 -37 215
-216 211
-216 -214
-211 214 216
-217 -211
-217 214
211 -214 217
-218 -216
-218 -217
216 217 218
-219 -211
-219 -214
211 214 219
-220 -215
-220 -219
215 219 220
-221 -37
-221 38
37 -38 221
-222 37
-222 -38
-37 38 222
-223 -221
-223 -222
221 222 223
-224 37
-224 38
-37 -38 224
-225 220
-225 -223
-220 223 225
-226 -220
-226 223
220 -223 226
-227 -225
-227 -226
225 226 227
-228 -220
-228 -223
220 223 228
-229 -224
-229 -228
224 228 229
-230 -38
-230 39
38 -39 230
-231 38
-231 -39
-38 39 231
-232 -230
-232 -231
230 231 232
-233 38
-233 39
-38 -39 233
-234 229
-234 -232
-229 232 234
-235 -229
-235 232
229 -232 235
-236 -234
-236 -235
234 235 236
-237 -229
-237 -232
229 232 237
-238 -233
-238 -237
233 237 238
-239 -39
-239 40
39 -40 239
-240 39
-240 -40
-39 40 240
-241 -239
-241 -240
239 240 241
-242 39
-242 40
-39 -40 242
-243 238
-243 -241
-238 241 243
-244 -238
-244 241
238 -241 244
-245 -243
-245 -244
243 244 245
-246 -238
-246 -241
238 241 246
-247 -242
-247 -246
242 246 247
-248 -40
-248 41
40 -41 248
-249 40
-249 -41
-40 41 249
-250 -248
-250 -249
248 249 250
-251 40
-251 41
-40 -41 251
-252 247
-252 -250
-247 250 252
-253 -247
-253 250
247 -250 253
-254 -252
-254 -253
252 253 254
-255 -247
-255 -250
247 250 255
-256 -251
-256 -255
251 255 256
-257 -41
-257 42
41 -42 257
-258 41
-258 -42
-41 42 258
-259 -257
-259 -258
257 258 259
-260 41
-260 42
-41 -42 260
-261 256
-261 -259
-256 259 261
-262 -256
-262 259
256 -259 262
-263 -261
-263 -262
261 262 263
-264 -256
-264 -259
256 259 264
-265 -260
-265 -264
260 264 265
-266 -42
-266 43
42 -43 266
-267 42
-267 -43
-42 43 267
-268 -266
-268 -267
266 267 268
-269 42
-269 43
-42 -43 269
-270 265
-270 -268
-265 268 270
-271 -265
-271 268
265 -268 271
-272 -270
-272 -271
270 271 272
-273 -265
-273 -268
265 268 273
-274 -269
-274 -273
269 273 274
-275 -43
-275 44
43 -44 275
-276 43
-276 -44
-43 44 276
-277 -275
-277 -276
275 276 277
-278 43
-278 44
-43 -44 278
-279 274
-279 -277
-274 277 279
-280 -274
-280 277
274 -277 280
-281 -279
-281 -280
279 280 281
-282 -274
-282 -277
274 277 282
-283 -278
-283 -282
278 282 283
-284 -44
-284 45
44 -45 284
-285 44
-285 -45
-44 45 285
-286 -284
-286 -285
284 285 286
-287 44
-287 45
-44 -45 287
-288 283
-288 -286
-283 286 288
-289 -283
-289 286
283 -286 289
-290 -288
-290 -289
288 289 290
-291 -283
-291 -286
283 286 291
-292 -287
-292 -291
287 291 292
-293 -45
-293 46
45 -46 293
-294 45
-294 -46
-45 46 294
-295 -293
-295 -294
293 294 295
-296 45
-296 46
-45 -46 296
-297 292
-297 -295
-292 295 297
-298 -292
-298 295
292 -295 298
-299 -297
-299 -298
297 298 299
-300 -292
-300 -295
292 295 300
-301 -296
-301 -300
296 300 301
-302 -46
-302 47
46 -47 302
-303 46
-303 -47
-46 47 303
-304 -302
-304 -303
302 303 304
-305 46
-305 47
-46 -47 305
-306 301
-306 -304
-301 304 306
-307 -301
-307 304
301 -304 307
-308 -306
-308 -307
306 307 308
-309 -301
-309 -304
301 304 309
-310 -305
-310 -309
305 309 310
-311 -47
-311 48
47 -48 311
-312 47
-312 -48
-47 48 312
-313 -311
-313 -312
311 312 313
-314 47
-314 48
-47 -48 314
-315 310
-315 -313
-310 313 315
-316 -310
-316 313
310 -313 316
-317 -315
-317 -316
315 316 317
-318 -310
-318 -313
310 313 318
-319 -314
-319 -318
314 318 319
-320 -48
-320 49
48 -49 320
-321 48
-321 -49
-48 49 321
-322 -320
-322 -321
320 321 322
-323 48
-323 49
-48 -49 323
-324 319
-324 -322
-319 322 324
-325 -319
-325 322
319 -322 325
-326 -324
-326 -325
324 325 326
-327 -319
-327 -322
319 322 327
-328 -323
-328 -327
323 327 328
-329 -49
-329 50
49 -50 329
-330 49
-330 -50
-49 50 330
-331 -329
-331 -330
329 330 331
-332 49
-332 50
-49 -50 332
-333 328
-333 -331
-328 331 333
-334 -328
-334 331
328 -331 334
-335 -333
-335 -334
333 334 335
-336 -328
-336 -331
328 331 336
-337 -332
-337 -336
332 336 337
-338 -50
-338 51
50 -51 338
-339 50
-339 -51
-50 51 339
-340 -338
-340 -339
338 339 340
-341 50
-341 51
-50 -51 341
-342 337
-342 -340
-337 340 342
-343 -337
-343 340
337 -340 343
-344 -342
-344 -343
342 343 344
-345 -337
-345 -340
337 340 345
-346 -341
-346 -345
341 345 346
-347 -51
-347 52
51 -52 347
-348 51
-348 -52
-51 52 348
-349 -347
-349 -348
347 348 349
-350 51
-350 52
-51 -52 350
-351 346
-351 -349
-346 349 351
-352 -346
-352 349
346 -349 352
-353 -351
-353 -352
351 352 353
-354 -346
-354 -349
346 349 354
-355 -350
-355 -354
350 354 355
-356 -52
-356 53
52 -53 356
-357 52
-357 -53
-52 53 357
-358 -356
-358 -357
356 357 358
-359 52
-359 53
-52 -53 359
-360 355
-360 -358
-355 358 360
-361 -355
-361 358
355 -358 361
-362 -360
-362 -361
360 361 362
-363 -355
-363 -358
355 358 363
-364 -359
-364 -363
359 363 364
-365 -53
-365 54
53 -54 365
-366 53
-366 -54
-53 54 366
-367 -365
-367 -366
365 366 367
-368 53
-368 54
-53 -54 368
-369 364
-369 -367
-364 367 369
-370 -364
-370 367
364 -367 370
-371 -369
-371 -370
369 370 371
-372 -364
-372 -367
364 367 372
-373 -368
-373 -372
368 372 373
-374 -54
-374 55
54 -55 374
-375 54
-375 -55
-54 55 375
-376 -374
-376 -375
374 375 376
-377 54
-377 55
-54 -55 377
-378 373
-378 -376
-373 376 378
-379 -373
-379 376
373 -376 379
-380 -378
-380 -379
378 379 380
-381 -373
-381 -376
373 376 381
-382 -377
-382 -381
377 381 382
-383 -55
-383 56
55 -56 383
-384 55
-384 -56
-55 56 384
-385 -383
-385 -384
383 384 385
-386 55
-386 56
-55 -56 386
-387 382
-387 -385
-382 385 387
-388 -382
-388 385
382 -385 388
-389 -387
-389 -388
387 388 389
-390 -382
-390 -385
382 385 390
-391 -386
-391 -390
386 390 391
-392 -56
-392 57
56 -57 392
-393 56
-393 -57
-56 57 393
-394 -392
-394 -393
392 393 394
-395 56
-395 57
-56 -57 395
-396 391
-396 -394
-391 394 396
-397 -391
-397 394
391 -394 397
-398 -396
-398 -397
396 397 398
-399 -391
-399 -394
391 394 399
-400 -395
-400 -399
395 399 400
-401 -57
-401 58
57 -58 401
-402 57
-402 -58
-57 58 402
-403 -401
-403 -402
401 402 403
-404 57
-404 58
-57 -58 404
-405 400
-405 -403
-400 403 405
-406 -400
-406 403
400 -403 406
-407 -405
-407 -406
405 406 407
-408 -400
-408 -403
400 403 408
-409 -404
-409 -408
404 408 409
-410 -58
-410 59
58 -59 410
-411 58
-411 -59
-58 59 411
-412 -410
-412 -411
410 411 412
-413 58
-413 59
-58 -59 413
-414 409
-414 -412
-409 412 414
-415 -409
-415 412
409 -412 415
-416 -414
-416 -415
414 415 416
-417 -409
-417 -412
409 412 417
-418 -413
-418 -417
413 417 418
-419 23
-419 -101
-23 101 419
-420 -23
-420 25
23 -25 420
-421 -419
-421 -420
419 420 421
-422 23
-422 -110
-23 110 422
-423 -23
-423 26
23 -26 423
-424 -422
-424 -423
422 423 424
-425 23
-425 -119
-23 119 425
-426 -23
-426 27
23 -27 426
-427 -425
-427 -426
425 426 427
-428 23
-428 -128
-23 128 428
-429 -23
-429 28
23 -28 429
-430 -428
-430 -429
428 429 430
-431 23
-431 -137
-23 137 431
-432 -23
-432 29
23 -29 432
-433 -431
-433 -432
431 432 433
-434 23
-434 -146
-23 146 434
-435 -23
-435 30
23 -30 435
-436 -434
-436 -435
434 435 436
-437 23
-437 -155
-23 155 437
-438 -23
-438 31
23 -31 438
-439 -437
-439 -438
437 438 439
-440 23
-440 -164
-23 164 440
-441 -23
-441 32
23 -32 441
-442 -440
-442 -441
440 441 442
-443 23
-443 -173
-23 173 443
-444 -23
-444 33
23 -33 444
-445 -443
-445 -444
443 444 445
-446 23
-446 -182
-23 182 446
-447 -23
-447 34
23 -34 447
-448 -446
-448 -447
446 447 448
-449 23
-449 -191
-23 191 449
-450 -23
-450 35
23 -35 450
-451 -449
-451 -450
449 450 451
-452 23
-452 -200
-23 200 452
-453 -23
-453 36
23 -36 453
-454 -452
-454 -453
452 453 454
-455 23
-455 -209
-23 209 455
-456 -23
-456 37
23 -37 456
-457 -455
-457 -456
455 456 457
-458 23
-458 -218
-23 218 458
-459 -23
-459 38
23 -38 459
-460 -458
-460 -459
458 459 460
-461 23
-461 -227
-23 227 461
-462 -23
-462 39
23 -39 462
-463 -461
-463 -462
461 462 463
-464 23
-464 -236
-23 236 464
-465 -23
-465 40
23 -40 465
-466 -464
-466 -465
464 465 466
-467 23
-467 -245
-23 245 467
-468 -23
-468 41
23 -41 468
-469 -467
-469 -468
467 468 469
-470 23
-470 -254
-23 254 470
-471 -23
-471 42
23 -42 471
-472 -470
-472 -471
470 471 472
-473 23
-473 -263
-23 263 473
-474 -23
-474 43
23 -43 474
-475 -473
-475 -474
473 474 475
-476 23
-476 -272
-23 272 476
-477 -23
-477 44
23 -44 477
-478 -476
-478 -477
476 477 478
-479 23
-479 -281
-23 281 479
-480 -23
-480 45
23 -45 480
-481 -479
-481 -480
479 480 481
-482 23
-482 -290
-23 290 482
-483 -23
-483 46
23 -46 483
-484 -482
-484 -483
482 483 484
-485 23
-485 -299
-23 299 485
-486 -23
-486 47
23 -47 486
-487 -485
-487 -486
485 486 487
-488 23
-488 -308
-23 308 488
-489 -23
-489 48
23 -48 489
-490 -488
-490 -489
488 489 490
-491 23
-491 -317
-23 317 491
-492 -23
-492 49
23 -49 492
-493 -491
-493 -492
491 492 493
-494 23
-494 -326
-23 326 494
-495 -23
-495 50
23 -50 495
-496 -494
-496 -495
494 495 496
-497 23
-497 -335
-23 335 497
-498 -23
-498 51
23 -51 498
-499 -497
-499 -498
497 498 499
-500 23
-500 -344
-23 344 500
-501 -23
-501 52
23 -52 501
-502 -500
-502 -501
500 501 502
-503 23
-503 -353
-23 353 503
-504 -23
-504 53
23 -53 504
-505 -503
-505 -504
503 504 505
-506 23
-506 -362
-23 362 506
-507 -23
-507 54
23 -54 507
-508 -506
-508 -507
506 507 508
-509 23
-509 -371
-23 371 509
-510 -23
-510 55
23 -55 510
-511 -509
-511 -510
509 510 511
-512 23
-512 -380
-23 380 512
-513 -23
-513 56
23 -56 513
-514 -512
-514 -513
512 513 514
-515 23
-515 -389
-23 389 515
-516 -23
-516 57
23 -57 516
-517 -515
-517 -516
515 516 517
-518 23
-518 -398
-23 398 518
-519 -23
-519 58
23 -58 519
-520 -518
-520 -519
518 519 520
-521 23
-521 -407
-23 407 521
-522 -23
-522 59
23 -59 522
-523 -521
-523 -522
521 522 523
-524 23
-524 -416
-23 416 524
-525 1
-525 94
-1 -94 525
-526 -94
-526 95
94 -95 526
-527 -525
-527 -526
525 526 527
-528 2
-528 94
-2 -94 528
-529 -94
-529 -421
94 421 529
-530 -528
-530 -529
528 529 530
-531 3
-531 94
-3 -94 531
-532 -94
-532 -424
94 424 532
-533 -531
-533 -532
531 532 533
-534 4
-534 94
-4 -94 534
-535 -94
-535 -427
94 427 535
-536 -534
-536 -535
534 535 536
-537 5
-537 94
-5 -94 537
-538 -94
-538 -430
94 430 538
-539 -537
-539 -538
537 538 539
-540 6
-540 94
-6 -94 540
-541 -94
-541 -433
94 433 541
-542 -540
-542 -541
540 541 542
-543 7
-543 94
-7 -94 543
-544 -94
-544 -436
94 436 544
-545 -543
-545 -544
543 544 545
-546 8
-546 94
-8 -94 546
-547 -94
-547 -439
94 439 547
-548 -546
-548 -547
546 547 548
-549 9
-549 94
-9 -94 549
-550 -94
-550 -442
94 442 550
-551 -549
-551 -550
549 550 551
-552 10
-552 94
-10 -94 552
-553 -94
-553 -445
94 445 553
-554 -552
-554 -553
552 553 554
-555 11
-555 94
-11 -94 555
-556 -94
-556 -448
94 448 556
-557 -555
-557 -556
555 556 557
-558 12
-558 94
-12 -94 558
-559 -94
-559 -451
94 451 559
-560 -558
-560 -559
558 559 560
-561 13
-561 94
-13 -94 561
-562 -94
-562 -454
94 454 562
-563 -561
-563 -562
561 562 563
-564 14
-564 94
-14 -94 564
-565 -94
-565 -457
94 457 565
-566 -564
-566 -565
564 565 566
-567 15
-567 94
-15 -94 567
-568 -94
-568 -460
94 460 568
-569 -567
-569 -568
567 568 569
-570 16
-570 94
-16 -94 570
-571 -94
-571 -463
94 463 571
-572 -570
-572 -571
570 571 572
-573 17
-573 94
-17 -94 573
-574 -94
-574 -466
94 466 574
-575 -573
-575 -574
573 574 575
-576 18
-576 94
-18 -94 576
-577 -94
-577 -469
94 469 577
-578 -576
-578 -577
576 577 578
-579 19
-579 94
-19 -94 579
-580 -94
-580 -472
94 472 580
-581 -579
-581 -580
579 580 581
-582 20
-582 94
-20 -94 582
-583 -94
-583 -475
94 475 583
-584 -582
-584 -583
582 583 584
-585 21
-585 94
-21 -94 585
-586 -94
-586 -478
94 478 586
-587 -585
-587 -586
585 586 587
-588 22
-588 94
-22 -94 588
-589 -94
-589 -481
94 481 589
-590 -588
-590 -589
588 589 590
-591 -94
-591 -484
94 484 591
-592 -94
-592 -487
94 487 592
-593 -94
-593 -490
94 490 593
-594 -94
-594 -493
94 493 594
-595 -94
-595 -496
94 496 595
-596 -94
-596 -499
94 499 596
-597 -94
-597 -502
94 502 597
-598 -94
-598 -505
94 505 598
-599 -94
-599 -508
94 508 599
-600 -94
-600 -511
94 511 600
-601 -94
-601 -514
94 514 601
-602 -94
-602 -517
94 517 602
-603 -94
-603 -520
94 520 603
-604 -94
-604 -523
94 523 604
-605 -94
-605 524
94 -524 605
-606 -59
-606 418
59 -418 606
-607 23
-607 -606
-23 606 607
607
